50
    1   274   274
    2   447   447
    3   571   571
    4   483   483
    5    61    61
    6   425   425
    7   658   658
    8   609   609
    9   535   535
   10   514   514
   11   792   792
   12   998   998
   13   560   560
   14    34    34
   15   370   370
   16   304   304
   17   584   584
   18   495   495
   19   889   889
   20   743   743
   21     6     6
   22   400   400
   23   466   466
   24    32    32
   25   919   919
   26   612   612
   27   139   139
   28   535   535
   29   383   383
   30   336   336
   31    27    27
   32   809   809
   33   896   896
   34   735   735
   35   911   911
   36   599   599
   37   628   628
   38   427   427
   39   933   933
   40   966   966
   41   176   176
   42   954   954
   43   254   254
   44   780   780
   45   279   279
   46   677   677
   47   589   589
   48   829   829
   49   407   407
   50   370   370
13210
